p cnf 500 2110
-23 -50 -47 20 11 0
-8 -6 22 44 33 0
35 -48 -11 -16 44 0
-37 3 -48 -14 50 0
29 -5 -25 -41 -1 0
-44 5 -17 1 2 0
48 35 11 10 21 0
-39 -28 -5 10 -16 0
-49 8 -43 -47 -17 0
-45 -46 14 1 25 0
-42 1 48 11 12 0
42 1 21 -18 44 0
-18 -8 -15 -10 20 0
47 -22 31 -1 -39 0
9 -12 25 -19 36 0
45 -30 -43 42 18 0
-7 -44 -37 18 -5 0
18 -34 -1 -40 -25 0
36 45 -24 -19 6 0
19 -41 -14 -17 36 0
14 20 -41 -29 5 0
47 42 29 -15 -4 0
-1 18 44 41 16 0
-36 -32 -35 37 -38 0
-47 -1 9 -41 29 0
-39 7 18 32 -26 0
16 -33 -47 4 -9 0
20 -17 23 -35 21 0
37 -49 41 35 20 0
13 -18 -28 -6 11 0
9 -19 26 -11 -38 0
22 17 33 44 -29 0
-44 -12 2 -3 48 0
-26 -3 20 47 -12 0
15 -47 -6 11 -24 0
8 -11 18 -43 -6 0
-29 -44 -8 -1 -20 0
23 3 -4 -50 -13 0
-17 -20 -35 12 25 0
35 42 7 41 8 0
-5 -30 14 -32 -47 0
-12 23 9 -49 -45 0
-20 -17 41 40 -11 0
-3 4 35 1 -14 0
-39 -18 24 -8 11 0
-36 -11 -21 34 -48 0
-26 33 -3 18 -31 0
21 -41 38 -25 -32 0
-2 -31 -37 4 -40 0
-33 -30 15 -49 -45 0
-8 -2 31 6 30 0
-27 -24 14 44 -19 0
-7 -47 25 39 14 0
35 16 -38 28 19 0
-2 -20 -19 8 29 0
-42 5 -32 37 -6 0
-27 -18 -39 45 37 0
-44 23 -13 39 30 0
-20 -11 -10 45 8 0
22 4 35 41 -37 0
-36 17 6 -43 -48 0
8 -10 -48 41 -36 0
-34 -31 -9 6 7 0
-17 43 -2 50 -31 0
-41 8 37 -40 -3 0
37 -45 5 25 -11 0
-49 16 -37 -34 -23 0
9 13 41 27 -36 0
-27 4 -34 -33 -26 0
43 1 -11 -28 -22 0
-29 26 -50 -16 -41 0
38 -20 -18 1 -40 0
-45 13 27 7 22 0
24 16 -12 43 14 0
-6 -40 -46 -21 33 0
24 -28 45 17 -30 0
-23 -3 -12 5 14 0
47 -35 40 33 -11 0
-18 2 44 8 -26 0
-3 16 -43 -5 36 0
22 7 42 -23 -9 0
-25 -48 10 9 19 0
-49 3 -26 -48 -13 0
42 -2 48 36 -33 0
-23 7 -48 31 -12 0
38 18 45 34 26 0
-39 28 -40 -6 -37 0
-35 46 8 22 -20 0
-16 13 36 -45 14 0
23 47 33 34 48 0
-34 -40 39 -33 20 0
48 7 13 -36 9 0
23 -6 -48 -18 -24 0
39 5 -2 -50 21 0
-37 -28 -49 36 21 0
-21 1 -10 27 9 0
-42 -34 22 -13 -26 0
36 -15 -31 7 11 0
32 -34 33 -1 5 0
48 16 -50 -44 -20 0
27 -26 25 -9 -15 0
-1 -33 -8 -49 -50 0
-47 2 7 -46 32 0
43 -14 -18 -5 48 0
18 -35 12 40 15 0
1 -42 -5 -6 35 0
45 -11 12 38 26 0
14 17 50 -31 39 0
36 -16 33 -22 -13 0
-7 29 -31 1 14 0
-3 29 -14 -33 -44 0
-49 -30 -22 -29 -50 0
-33 -37 -4 36 -41 0
34 18 14 -2 5 0
15 44 -42 -46 -3 0
-21 -44 9 24 31 0
-46 27 20 -28 -13 0
-38 -32 46 -48 50 0
-27 29 45 -16 46 0
24 36 38 29 -18 0
-39 38 -29 -34 -28 0
-39 -32 -35 12 -11 0
-25 -38 19 39 11 0
-1 -32 23 43 -38 0
-8 38 23 1 -7 0
-39 45 26 -14 -3 0
32 48 -12 4 -2 0
22 10 39 34 47 0
-42 21 7 33 -34 0
40 -38 3 -13 4 0
-36 38 41 29 2 0
-10 -1 -20 12 -38 0
12 -8 10 -46 -16 0
12 43 24 11 26 0
45 -48 -30 -6 43 0
-5 -45 -47 8 30 0
20 -39 -10 -25 -37 0
-27 -42 -11 40 -24 0
9 33 11 2 -34 0
37 9 -6 42 21 0
14 -35 47 -6 24 0
30 22 41 -11 19 0
-24 19 14 -20 29 0
34 14 39 36 2 0
31 -48 -20 -49 -25 0
-13 20 -39 6 28 0
-10 -45 -40 27 -50 0
-30 14 23 -12 -16 0
-33 32 1 48 43 0
-34 11 23 39 -31 0
18 -21 -47 32 -30 0
-6 -23 -50 -31 -8 0
-18 16 -49 28 -48 0
11 -34 7 -33 43 0
29 -4 -32 -7 37 0
-30 20 8 16 18 0
-37 29 46 3 17 0
-49 14 -35 29 38 0
-38 6 -47 -28 -44 0
-12 -9 2 -4 -13 0
25 41 34 13 27 0
-27 2 24 29 -38 0
9 -21 -29 -8 -6 0
-18 -40 -15 -13 -48 0
15 21 31 -45 1 0
-1 -39 -45 30 -27 0
44 -33 16 -25 22 0
-24 46 -25 15 33 0
-13 14 6 8 30 0
-5 -34 7 -20 -9 0
-21 -8 44 -17 49 0
-47 -48 -40 28 2 0
-14 23 -39 -8 -42 0
-33 -20 45 -9 -30 0
-5 39 -7 -8 47 0
36 -43 8 26 17 0
-26 46 14 -35 -20 0
-27 13 -38 45 25 0
29 17 23 4 -24 0
15 -28 -24 -33 44 0
14 46 -35 -13 6 0
16 -24 -35 -38 48 0
-2 -16 -49 -20 -11 0
10 42 35 -13 -15 0
-41 36 -44 -1 -31 0
46 -27 -11 -33 50 0
-33 7 -40 6 27 0
-48 43 -36 -4 -27 0
-31 13 -38 36 9 0
-3 11 47 -24 -13 0
32 35 45 43 -18 0
6 37 -44 -13 28 0
-9 43 -37 -20 -21 0
-23 -9 -48 49 -35 0
-35 -29 -32 19 13 0
-26 -9 -38 22 39 0
-46 -21 -16 -39 22 0
33 -46 -27 -17 2 0
-40 -39 -18 -23 -13 0
18 21 -23 -24 -13 0
-40 -9 -38 -43 14 0
-48 27 13 23 30 0
-9 -19 6 28 31 0
6 -24 38 -20 18 0
29 40 -44 -16 2 0
-4 -45 23 -19 22 0
18 -19 -11 35 49 0
21 -24 36 -32 9 0
3 12 -9 29 6 0
-17 -18 28 -30 -9 0
32 -23 -4 10 38 0
-30 -47 37 9 -3 0
-43 7 -45 -50 -19 0
-49 -38 19 -18 44 0
12 -22 -25 -43 -27 0
4 10 9 20 -48 0
26 42 3 -43 -22 0
33 11 -14 -22 -42 0
30 48 -7 22 24 0
-4 40 42 -46 9 0
3 47 -11 -50 20 0
2 -16 7 -3 25 0
-20 -3 41 39 31 0
1 18 -44 19 -11 0
6 -39 -2 29 -49 0
37 14 -11 9 -8 0
38 47 15 25 12 0
-22 -6 10 -33 -14 0
47 28 -35 37 6 0
-38 -18 1 33 48 0
37 50 26 28 -42 0
-11 -3 -28 38 -31 0
19 -44 -24 -13 28 0
39 9 46 -2 3 0
-28 43 6 1 3 0
10 -41 -15 -49 -27 0
-23 50 -25 48 16 0
-33 41 -20 24 47 0
37 -3 -11 -19 -39 0
-49 40 -29 42 -34 0
4 8 -29 1 6 0
17 -15 38 -8 -41 0
-1 16 15 31 35 0
40 -48 11 20 13 0
-30 -12 31 40 38 0
-42 -13 -9 8 6 0
14 -28 25 -7 40 0
25 34 -38 -44 1 0
16 -27 -39 -1 2 0
17 -45 24 -46 -9 0
-4 -8 51 0
4 -8 -51 0
-4 8 -51 0
4 8 51 0
13 14 52 0
-13 14 -52 0
13 -14 -52 0
-13 -14 52 0
-16 19 53 0
16 19 -53 0
-16 -19 -53 0
16 -19 53 0
21 22 54 0
-21 22 -54 0
21 -22 -54 0
-21 -22 54 0
25 26 55 0
-25 26 -55 0
25 -26 -55 0
-25 -26 55 0
-27 -28 56 0
27 -28 -56 0
-27 28 -56 0
27 28 56 0
-31 -33 57 0
31 -33 -57 0
-31 33 -57 0
31 33 57 0
36 42 58 0
-36 42 -58 0
36 -42 -58 0
-36 -42 58 0
44 45 59 0
-44 45 -59 0
44 -45 -59 0
-44 -45 59 0
50 -51 60 0
-50 -51 -60 0
50 51 -60 0
-50 51 60 0
52 -53 61 0
-52 -53 -61 0
52 53 -61 0
-52 53 61 0
54 -55 62 0
-54 -55 -62 0
54 55 -62 0
-54 55 62 0
56 -57 63 0
-56 -57 -63 0
56 57 -63 0
-56 57 63 0
58 -59 64 0
-58 -59 -64 0
58 59 -64 0
-58 59 64 0
60 -61 65 0
-60 -61 -65 0
60 61 -65 0
-60 61 65 0
62 -63 66 0
-62 -63 -66 0
62 63 -66 0
-62 63 66 0
-64 -65 66 0
64 -65 -66 0
-64 65 -66 0
64 65 66 0
-1 -2 67 0
1 -2 -67 0
-1 2 -67 0
1 2 67 0
5 6 68 0
-5 6 -68 0
5 -6 -68 0
-5 -6 68 0
-8 10 69 0
8 10 -69 0
-8 -10 -69 0
8 -10 69 0
18 -22 70 0
-18 -22 -70 0
18 22 -70 0
-18 22 70 0
24 -26 71 0
-24 -26 -71 0
24 26 -71 0
-24 26 71 0
27 31 72 0
-27 31 -72 0
27 -31 -72 0
-27 -31 72 0
32 -34 73 0
-32 -34 -73 0
32 34 -73 0
-32 34 73 0
-35 -38 74 0
35 -38 -74 0
-35 38 -74 0
35 38 74 0
-42 43 75 0
42 43 -75 0
-42 -43 -75 0
42 -43 75 0
-44 45 76 0
44 45 -76 0
-44 -45 -76 0
44 -45 76 0
66 -67 77 0
-66 -67 -77 0
66 67 -77 0
-66 67 77 0
68 -69 78 0
-68 -69 -78 0
68 69 -78 0
-68 69 78 0
70 -71 79 0
-70 -71 -79 0
70 71 -79 0
-70 71 79 0
72 -73 80 0
-72 -73 -80 0
72 73 -80 0
-72 73 80 0
74 -75 81 0
-74 -75 -81 0
74 75 -81 0
-74 75 81 0
76 -77 82 0
-76 -77 -82 0
76 77 -82 0
-76 77 82 0
78 -79 83 0
-78 -79 -83 0
78 79 -83 0
-78 79 83 0
80 -81 84 0
-80 -81 -84 0
80 81 -84 0
-80 81 84 0
-82 -83 84 0
82 -83 -84 0
-82 83 -84 0
82 83 84 0
1 2 85 0
-1 2 -85 0
1 -2 -85 0
-1 -2 85 0
4 -8 86 0
-4 -8 -86 0
4 8 -86 0
-4 8 86 0
-9 -11 87 0
9 -11 -87 0
-9 11 -87 0
9 11 87 0
-12 13 88 0
12 13 -88 0
-12 -13 -88 0
12 -13 88 0
-14 17 89 0
14 17 -89 0
-14 -17 -89 0
14 -17 89 0
20 21 90 0
-20 21 -90 0
20 -21 -90 0
-20 -21 90 0
-23 24 91 0
23 24 -91 0
-23 -24 -91 0
23 -24 91 0
26 28 92 0
-26 28 -92 0
26 -28 -92 0
-26 -28 92 0
-30 31 93 0
30 31 -93 0
-30 -31 -93 0
30 -31 93 0
-33 -34 94 0
33 -34 -94 0
-33 34 -94 0
33 34 94 0
35 37 95 0
-35 37 -95 0
35 -37 -95 0
-35 -37 95 0
38 39 96 0
-38 39 -96 0
38 -39 -96 0
-38 -39 96 0
-42 46 97 0
42 46 -97 0
-42 -46 -97 0
42 -46 97 0
48 49 98 0
-48 49 -98 0
48 -49 -98 0
-48 -49 98 0
85 -86 99 0
-85 -86 -99 0
85 86 -99 0
-85 86 99 0
87 -88 100 0
-87 -88 -100 0
87 88 -100 0
-87 88 100 0
89 -90 101 0
-89 -90 -101 0
89 90 -101 0
-89 90 101 0
91 -92 102 0
-91 -92 -102 0
91 92 -102 0
-91 92 102 0
93 -94 103 0
-93 -94 -103 0
93 94 -103 0
-93 94 103 0
95 -96 104 0
-95 -96 -104 0
95 96 -104 0
-95 96 104 0
97 -98 105 0
-97 -98 -105 0
97 98 -105 0
-97 98 105 0
99 -100 106 0
-99 -100 -106 0
99 100 -106 0
-99 100 106 0
101 -102 107 0
-101 -102 -107 0
101 102 -107 0
-101 102 107 0
103 -104 108 0
-103 -104 -108 0
103 104 -108 0
-103 104 108 0
105 -106 109 0
-105 -106 -109 0
105 106 -109 0
-105 106 109 0
107 -108 110 0
-107 -108 -110 0
107 108 -110 0
-107 108 110 0
109 110 0
-109 -110 0
1 2 111 0
-1 2 -111 0
1 -2 -111 0
-1 -2 111 0
3 6 112 0
-3 6 -112 0
3 -6 -112 0
-3 -6 112 0
7 -8 113 0
-7 -8 -113 0
7 8 -113 0
-7 8 113 0
-9 10 114 0
9 10 -114 0
-9 -10 -114 0
9 -10 114 0
-11 -12 115 0
11 -12 -115 0
-11 12 -115 0
11 12 115 0
16 17 116 0
-16 17 -116 0
16 -17 -116 0
-16 -17 116 0
18 19 117 0
-18 19 -117 0
18 -19 -117 0
-18 -19 117 0
20 21 118 0
-20 21 -118 0
20 -21 -118 0
-20 -21 118 0
-22 23 119 0
22 23 -119 0
-22 -23 -119 0
22 -23 119 0
30 36 120 0
-30 36 -120 0
30 -36 -120 0
-30 -36 120 0
37 38 121 0
-37 38 -121 0
37 -38 -121 0
-37 -38 121 0
-39 40 122 0
39 40 -122 0
-39 -40 -122 0
39 -40 122 0
-41 -44 123 0
41 -44 -123 0
-41 44 -123 0
41 44 123 0
-45 46 124 0
45 46 -124 0
-45 -46 -124 0
45 -46 124 0
47 48 125 0
-47 48 -125 0
47 -48 -125 0
-47 -48 125 0
111 -112 126 0
-111 -112 -126 0
111 112 -126 0
-111 112 126 0
113 -114 127 0
-113 -114 -127 0
113 114 -127 0
-113 114 127 0
115 -116 128 0
-115 -116 -128 0
115 116 -128 0
-115 116 128 0
117 -118 129 0
-117 -118 -129 0
117 118 -129 0
-117 118 129 0
119 -120 130 0
-119 -120 -130 0
119 120 -130 0
-119 120 130 0
121 -122 131 0
-121 -122 -131 0
121 122 -131 0
-121 122 131 0
123 -124 132 0
-123 -124 -132 0
123 124 -132 0
-123 124 132 0
125 -126 133 0
-125 -126 -133 0
125 126 -133 0
-125 126 133 0
127 -128 134 0
-127 -128 -134 0
127 128 -134 0
-127 128 134 0
129 -130 135 0
-129 -130 -135 0
129 130 -135 0
-129 130 135 0
131 -132 136 0
-131 -132 -136 0
131 132 -136 0
-131 132 136 0
133 -134 137 0
-133 -134 -137 0
133 134 -137 0
-133 134 137 0
135 -136 138 0
-135 -136 -138 0
135 136 -138 0
-135 136 138 0
137 138 0
-137 -138 0
1 -4 139 0
-1 -4 -139 0
1 4 -139 0
-1 4 139 0
-5 6 140 0
5 6 -140 0
-5 -6 -140 0
5 -6 140 0
7 -8 141 0
-7 -8 -141 0
7 8 -141 0
-7 8 141 0
-12 14 142 0
12 14 -142 0
-12 -14 -142 0
12 -14 142 0
16 21 143 0
-16 21 -143 0
16 -21 -143 0
-16 -21 143 0
-24 -25 144 0
24 -25 -144 0
-24 25 -144 0
24 25 144 0
-29 30 145 0
29 30 -145 0
-29 -30 -145 0
29 -30 145 0
34 -35 146 0
-34 -35 -146 0
34 35 -146 0
-34 35 146 0
-37 -38 147 0
37 -38 -147 0
-37 38 -147 0
37 38 147 0
-39 -40 148 0
39 -40 -148 0
-39 40 -148 0
39 40 148 0
-43 46 149 0
43 46 -149 0
-43 -46 -149 0
43 -46 149 0
-47 48 150 0
47 48 -150 0
-47 -48 -150 0
47 -48 150 0
49 50 151 0
-49 50 -151 0
49 -50 -151 0
-49 -50 151 0
139 -140 152 0
-139 -140 -152 0
139 140 -152 0
-139 140 152 0
141 -142 153 0
-141 -142 -153 0
141 142 -153 0
-141 142 153 0
143 -144 154 0
-143 -144 -154 0
143 144 -154 0
-143 144 154 0
145 -146 155 0
-145 -146 -155 0
145 146 -155 0
-145 146 155 0
147 -148 156 0
-147 -148 -156 0
147 148 -156 0
-147 148 156 0
149 -150 157 0
-149 -150 -157 0
149 150 -157 0
-149 150 157 0
151 -152 158 0
-151 -152 -158 0
151 152 -158 0
-151 152 158 0
153 -154 159 0
-153 -154 -159 0
153 154 -159 0
-153 154 159 0
155 -156 160 0
-155 -156 -160 0
155 156 -160 0
-155 156 160 0
157 -158 161 0
-157 -158 -161 0
157 158 -161 0
-157 158 161 0
159 -160 162 0
-159 -160 -162 0
159 160 -162 0
-159 160 162 0
161 162 0
-161 -162 0
5 -7 163 0
-5 -7 -163 0
5 7 -163 0
-5 7 163 0
-11 13 164 0
11 13 -164 0
-11 -13 -164 0
11 -13 164 0
-15 16 165 0
15 16 -165 0
-15 -16 -165 0
15 -16 165 0
-19 -20 166 0
19 -20 -166 0
-19 20 -166 0
19 20 166 0
-21 -22 167 0
21 -22 -167 0
-21 22 -167 0
21 22 167 0
24 26 168 0
-24 26 -168 0
24 -26 -168 0
-24 -26 168 0
27 -28 169 0
-27 -28 -169 0
27 28 -169 0
-27 28 169 0
29 -33 170 0
-29 -33 -170 0
29 33 -170 0
-29 33 170 0
-34 35 171 0
34 35 -171 0
-34 -35 -171 0
34 -35 171 0
-36 -37 172 0
36 -37 -172 0
-36 37 -172 0
36 37 172 0
39 -41 173 0
-39 -41 -173 0
39 41 -173 0
-39 41 173 0
42 -43 174 0
-42 -43 -174 0
42 43 -174 0
-42 43 174 0
-45 47 175 0
45 47 -175 0
-45 -47 -175 0
45 -47 175 0
162 -163 176 0
-162 -163 -176 0
162 163 -176 0
-162 163 176 0
164 -165 177 0
-164 -165 -177 0
164 165 -177 0
-164 165 177 0
166 -167 178 0
-166 -167 -178 0
166 167 -178 0
-166 167 178 0
168 -169 179 0
-168 -169 -179 0
168 169 -179 0
-168 169 179 0
170 -171 180 0
-170 -171 -180 0
170 171 -180 0
-170 171 180 0
172 -173 181 0
-172 -173 -181 0
172 173 -181 0
-172 173 181 0
174 -175 182 0
-174 -175 -182 0
174 175 -182 0
-174 175 182 0
176 -177 183 0
-176 -177 -183 0
176 177 -183 0
-176 177 183 0
178 -179 184 0
-178 -179 -184 0
178 179 -184 0
-178 179 184 0
180 -181 185 0
-180 -181 -185 0
180 181 -185 0
-180 181 185 0
182 -183 186 0
-182 -183 -186 0
182 183 -186 0
-182 183 186 0
184 -185 187 0
-184 -185 -187 0
184 185 -187 0
-184 185 187 0
186 187 0
-186 -187 0
4 -5 188 0
-4 -5 -188 0
4 5 -188 0
-4 5 188 0
8 -9 189 0
-8 -9 -189 0
8 9 -189 0
-8 9 189 0
10 11 190 0
-10 11 -190 0
10 -11 -190 0
-10 -11 190 0
13 15 191 0
-13 15 -191 0
13 -15 -191 0
-13 -15 191 0
16 -19 192 0
-16 -19 -192 0
16 19 -192 0
-16 19 192 0
-21 22 193 0
21 22 -193 0
-21 -22 -193 0
21 -22 193 0
23 -24 194 0
-23 -24 -194 0
23 24 -194 0
-23 24 194 0
-26 27 195 0
26 27 -195 0
-26 -27 -195 0
26 -27 195 0
-28 -32 196 0
28 -32 -196 0
-28 32 -196 0
28 32 196 0
-36 38 197 0
36 38 -197 0
-36 -38 -197 0
36 -38 197 0
-41 45 198 0
41 45 -198 0
-41 -45 -198 0
41 -45 198 0
46 -49 199 0
-46 -49 -199 0
46 49 -199 0
-46 49 199 0
187 -188 200 0
-187 -188 -200 0
187 188 -200 0
-187 188 200 0
189 -190 201 0
-189 -190 -201 0
189 190 -201 0
-189 190 201 0
191 -192 202 0
-191 -192 -202 0
191 192 -202 0
-191 192 202 0
193 -194 203 0
-193 -194 -203 0
193 194 -203 0
-193 194 203 0
195 -196 204 0
-195 -196 -204 0
195 196 -204 0
-195 196 204 0
197 -198 205 0
-197 -198 -205 0
197 198 -205 0
-197 198 205 0
199 -200 206 0
-199 -200 -206 0
199 200 -206 0
-199 200 206 0
201 -202 207 0
-201 -202 -207 0
201 202 -207 0
-201 202 207 0
203 -204 208 0
-203 -204 -208 0
203 204 -208 0
-203 204 208 0
205 -206 209 0
-205 -206 -209 0
205 206 -209 0
-205 206 209 0
207 -208 210 0
-207 -208 -210 0
207 208 -210 0
-207 208 210 0
209 210 0
-209 -210 0
1 -2 211 0
-1 -2 -211 0
1 2 -211 0
-1 2 211 0
-3 6 212 0
3 6 -212 0
-3 -6 -212 0
3 -6 212 0
-11 -13 213 0
11 -13 -213 0
-11 13 -213 0
11 13 213 0
-17 18 214 0
17 18 -214 0
-17 -18 -214 0
17 -18 214 0
-19 -20 215 0
19 -20 -215 0
-19 20 -215 0
19 20 215 0
24 -26 216 0
-24 -26 -216 0
24 26 -216 0
-24 26 216 0
30 31 217 0
-30 31 -217 0
30 -31 -217 0
-30 -31 217 0
-32 -35 218 0
32 -35 -218 0
-32 35 -218 0
32 35 218 0
37 -38 219 0
-37 -38 -219 0
37 38 -219 0
-37 38 219 0
-40 42 220 0
40 42 -220 0
-40 -42 -220 0
40 -42 220 0
43 -46 221 0
-43 -46 -221 0
43 46 -221 0
-43 46 221 0
210 -211 222 0
-210 -211 -222 0
210 211 -222 0
-210 211 222 0
212 -213 223 0
-212 -213 -223 0
212 213 -223 0
-212 213 223 0
214 -215 224 0
-214 -215 -224 0
214 215 -224 0
-214 215 224 0
216 -217 225 0
-216 -217 -225 0
216 217 -225 0
-216 217 225 0
218 -219 226 0
-218 -219 -226 0
218 219 -226 0
-218 219 226 0
220 -221 227 0
-220 -221 -227 0
220 221 -227 0
-220 221 227 0
222 -223 228 0
-222 -223 -228 0
222 223 -228 0
-222 223 228 0
224 -225 229 0
-224 -225 -229 0
224 225 -229 0
-224 225 229 0
226 -227 230 0
-226 -227 -230 0
226 227 -230 0
-226 227 230 0
-228 -229 230 0
228 -229 -230 0
-228 229 -230 0
228 229 230 0
2 3 231 0
-2 3 -231 0
2 -3 -231 0
-2 -3 231 0
4 -8 232 0
-4 -8 -232 0
4 8 -232 0
-4 8 232 0
12 -17 233 0
-12 -17 -233 0
12 17 -233 0
-12 17 233 0
-20 -21 234 0
20 -21 -234 0
-20 21 -234 0
20 21 234 0
22 23 235 0
-22 23 -235 0
22 -23 -235 0
-22 -23 235 0
24 -29 236 0
-24 -29 -236 0
24 29 -236 0
-24 29 236 0
-31 32 237 0
31 32 -237 0
-31 -32 -237 0
31 -32 237 0
-33 -37 238 0
33 -37 -238 0
-33 37 -238 0
33 37 238 0
38 -42 239 0
-38 -42 -239 0
38 42 -239 0
-38 42 239 0
44 -45 240 0
-44 -45 -240 0
44 45 -240 0
-44 45 240 0
46 -49 241 0
-46 -49 -241 0
46 49 -241 0
-46 49 241 0
230 -231 242 0
-230 -231 -242 0
230 231 -242 0
-230 231 242 0
232 -233 243 0
-232 -233 -243 0
232 233 -243 0
-232 233 243 0
234 -235 244 0
-234 -235 -244 0
234 235 -244 0
-234 235 244 0
236 -237 245 0
-236 -237 -245 0
236 237 -245 0
-236 237 245 0
238 -239 246 0
-238 -239 -246 0
238 239 -246 0
-238 239 246 0
240 -241 247 0
-240 -241 -247 0
240 241 -247 0
-240 241 247 0
242 -243 248 0
-242 -243 -248 0
242 243 -248 0
-242 243 248 0
244 -245 249 0
-244 -245 -249 0
244 245 -249 0
-244 245 249 0
246 -247 250 0
-246 -247 -250 0
246 247 -250 0
-246 247 250 0
-248 -249 250 0
248 -249 -250 0
-248 249 -250 0
248 249 250 0
2 5 251 0
-2 5 -251 0
2 -5 -251 0
-2 -5 251 0
8 10 252 0
-8 10 -252 0
8 -10 -252 0
-8 -10 252 0
12 13 253 0
-12 13 -253 0
12 -13 -253 0
-12 -13 253 0
14 -16 254 0
-14 -16 -254 0
14 16 -254 0
-14 16 254 0
-20 -21 255 0
20 -21 -255 0
-20 21 -255 0
20 21 255 0
-23 24 256 0
23 24 -256 0
-23 -24 -256 0
23 -24 256 0
-25 27 257 0
25 27 -257 0
-25 -27 -257 0
25 -27 257 0
-29 -30 258 0
29 -30 -258 0
-29 30 -258 0
29 30 258 0
31 -33 259 0
-31 -33 -259 0
31 33 -259 0
-31 33 259 0
35 -36 260 0
-35 -36 -260 0
35 36 -260 0
-35 36 260 0
-37 -39 261 0
37 -39 -261 0
-37 39 -261 0
37 39 261 0
-40 41 262 0
40 41 -262 0
-40 -41 -262 0
40 -41 262 0
-44 -49 263 0
44 -49 -263 0
-44 49 -263 0
44 49 263 0
251 -252 264 0
-251 -252 -264 0
251 252 -264 0
-251 252 264 0
253 -254 265 0
-253 -254 -265 0
253 254 -265 0
-253 254 265 0
255 -256 266 0
-255 -256 -266 0
255 256 -266 0
-255 256 266 0
257 -258 267 0
-257 -258 -267 0
257 258 -267 0
-257 258 267 0
259 -260 268 0
-259 -260 -268 0
259 260 -268 0
-259 260 268 0
261 -262 269 0
-261 -262 -269 0
261 262 -269 0
-261 262 269 0
263 -264 270 0
-263 -264 -270 0
263 264 -270 0
-263 264 270 0
265 -266 271 0
-265 -266 -271 0
265 266 -271 0
-265 266 271 0
267 -268 272 0
-267 -268 -272 0
267 268 -272 0
-267 268 272 0
269 -270 273 0
-269 -270 -273 0
269 270 -273 0
-269 270 273 0
271 -272 274 0
-271 -272 -274 0
271 272 -274 0
-271 272 274 0
273 274 0
-273 -274 0
-1 -3 275 0
1 -3 -275 0
-1 3 -275 0
1 3 275 0
-9 -10 276 0
9 -10 -276 0
-9 10 -276 0
9 10 276 0
-11 12 277 0
11 12 -277 0
-11 -12 -277 0
11 -12 277 0
-14 -17 278 0
14 -17 -278 0
-14 17 -278 0
14 17 278 0
-18 19 279 0
18 19 -279 0
-18 -19 -279 0
18 -19 279 0
-20 23 280 0
20 23 -280 0
-20 -23 -280 0
20 -23 280 0
24 25 281 0
-24 25 -281 0
24 -25 -281 0
-24 -25 281 0
27 -28 282 0
-27 -28 -282 0
27 28 -282 0
-27 28 282 0
-31 34 283 0
31 34 -283 0
-31 -34 -283 0
31 -34 283 0
35 36 284 0
-35 36 -284 0
35 -36 -284 0
-35 -36 284 0
37 38 285 0
-37 38 -285 0
37 -38 -285 0
-37 -38 285 0
41 -45 286 0
-41 -45 -286 0
41 45 -286 0
-41 45 286 0
48 49 287 0
-48 49 -287 0
48 -49 -287 0
-48 -49 287 0
274 -275 288 0
-274 -275 -288 0
274 275 -288 0
-274 275 288 0
276 -277 289 0
-276 -277 -289 0
276 277 -289 0
-276 277 289 0
278 -279 290 0
-278 -279 -290 0
278 279 -290 0
-278 279 290 0
280 -281 291 0
-280 -281 -291 0
280 281 -291 0
-280 281 291 0
282 -283 292 0
-282 -283 -292 0
282 283 -292 0
-282 283 292 0
284 -285 293 0
-284 -285 -293 0
284 285 -293 0
-284 285 293 0
286 -287 294 0
-286 -287 -294 0
286 287 -294 0
-286 287 294 0
288 -289 295 0
-288 -289 -295 0
288 289 -295 0
-288 289 295 0
290 -291 296 0
-290 -291 -296 0
290 291 -296 0
-290 291 296 0
292 -293 297 0
-292 -293 -297 0
292 293 -297 0
-292 293 297 0
294 -295 298 0
-294 -295 -298 0
294 295 -298 0
-294 295 298 0
296 -297 299 0
-296 -297 -299 0
296 297 -299 0
-296 297 299 0
298 299 0
-298 -299 0
1 2 300 0
-1 2 -300 0
1 -2 -300 0
-1 -2 300 0
-3 4 301 0
3 4 -301 0
-3 -4 -301 0
3 -4 301 0
-8 -10 302 0
8 -10 -302 0
-8 10 -302 0
8 10 302 0
-12 14 303 0
12 14 -303 0
-12 -14 -303 0
12 -14 303 0
15 17 304 0
-15 17 -304 0
15 -17 -304 0
-15 -17 304 0
18 -19 305 0
-18 -19 -305 0
18 19 -305 0
-18 19 305 0
20 22 306 0
-20 22 -306 0
20 -22 -306 0
-20 -22 306 0
23 -24 307 0
-23 -24 -307 0
23 24 -307 0
-23 24 307 0
25 -26 308 0
-25 -26 -308 0
25 26 -308 0
-25 26 308 0
27 -28 309 0
-27 -28 -309 0
27 28 -309 0
-27 28 309 0
29 -30 310 0
-29 -30 -310 0
29 30 -310 0
-29 30 310 0
31 34 311 0
-31 34 -311 0
31 -34 -311 0
-31 -34 311 0
35 -36 312 0
-35 -36 -312 0
35 36 -312 0
-35 36 312 0
40 -43 313 0
-40 -43 -313 0
40 43 -313 0
-40 43 313 0
45 46 314 0
-45 46 -314 0
45 -46 -314 0
-45 -46 314 0
47 -48 315 0
-47 -48 -315 0
47 48 -315 0
-47 48 315 0
299 -300 316 0
-299 -300 -316 0
299 300 -316 0
-299 300 316 0
301 -302 317 0
-301 -302 -317 0
301 302 -317 0
-301 302 317 0
303 -304 318 0
-303 -304 -318 0
303 304 -318 0
-303 304 318 0
305 -306 319 0
-305 -306 -319 0
305 306 -319 0
-305 306 319 0
307 -308 320 0
-307 -308 -320 0
307 308 -320 0
-307 308 320 0
309 -310 321 0
-309 -310 -321 0
309 310 -321 0
-309 310 321 0
311 -312 322 0
-311 -312 -322 0
311 312 -322 0
-311 312 322 0
313 -314 323 0
-313 -314 -323 0
313 314 -323 0
-313 314 323 0
315 -316 324 0
-315 -316 -324 0
315 316 -324 0
-315 316 324 0
317 -318 325 0
-317 -318 -325 0
317 318 -325 0
-317 318 325 0
319 -320 326 0
-319 -320 -326 0
319 320 -326 0
-319 320 326 0
321 -322 327 0
-321 -322 -327 0
321 322 -327 0
-321 322 327 0
323 -324 328 0
-323 -324 -328 0
323 324 -328 0
-323 324 328 0
325 -326 329 0
-325 -326 -329 0
325 326 -329 0
-325 326 329 0
-327 -328 329 0
327 -328 -329 0
-327 328 -329 0
327 328 329 0
-1 3 330 0
1 3 -330 0
-1 -3 -330 0
1 -3 330 0
4 -6 331 0
-4 -6 -331 0
4 6 -331 0
-4 6 331 0
9 12 332 0
-9 12 -332 0
9 -12 -332 0
-9 -12 332 0
-14 15 333 0
14 15 -333 0
-14 -15 -333 0
14 -15 333 0
-20 -22 334 0
20 -22 -334 0
-20 22 -334 0
20 22 334 0
-27 28 335 0
27 28 -335 0
-27 -28 -335 0
27 -28 335 0
-29 30 336 0
29 30 -336 0
-29 -30 -336 0
29 -30 336 0
31 32 337 0
-31 32 -337 0
31 -32 -337 0
-31 -32 337 0
-35 -38 338 0
35 -38 -338 0
-35 38 -338 0
35 38 338 0
-39 41 339 0
39 41 -339 0
-39 -41 -339 0
39 -41 339 0
-43 44 340 0
43 44 -340 0
-43 -44 -340 0
43 -44 340 0
329 -330 341 0
-329 -330 -341 0
329 330 -341 0
-329 330 341 0
331 -332 342 0
-331 -332 -342 0
331 332 -342 0
-331 332 342 0
333 -334 343 0
-333 -334 -343 0
333 334 -343 0
-333 334 343 0
335 -336 344 0
-335 -336 -344 0
335 336 -344 0
-335 336 344 0
337 -338 345 0
-337 -338 -345 0
337 338 -345 0
-337 338 345 0
339 -340 346 0
-339 -340 -346 0
339 340 -346 0
-339 340 346 0
341 -342 347 0
-341 -342 -347 0
341 342 -347 0
-341 342 347 0
343 -344 348 0
-343 -344 -348 0
343 344 -348 0
-343 344 348 0
345 -346 349 0
-345 -346 -349 0
345 346 -349 0
-345 346 349 0
-347 -348 349 0
347 -348 -349 0
-347 348 -349 0
347 348 349 0
8 10 350 0
-8 10 -350 0
8 -10 -350 0
-8 -10 350 0
-13 14 351 0
13 14 -351 0
-13 -14 -351 0
13 -14 351 0
17 24 352 0
-17 24 -352 0
17 -24 -352 0
-17 -24 352 0
-25 -26 353 0
25 -26 -353 0
-25 26 -353 0
25 26 353 0
-28 -32 354 0
28 -32 -354 0
-28 32 -354 0
28 32 354 0
-34 -36 355 0
34 -36 -355 0
-34 36 -355 0
34 36 355 0
38 -39 356 0
-38 -39 -356 0
38 39 -356 0
-38 39 356 0
-40 -41 357 0
40 -41 -357 0
-40 41 -357 0
40 41 357 0
44 46 358 0
-44 46 -358 0
44 -46 -358 0
-44 -46 358 0
350 -351 359 0
-350 -351 -359 0
350 351 -359 0
-350 351 359 0
352 -353 360 0
-352 -353 -360 0
352 353 -360 0
-352 353 360 0
354 -355 361 0
-354 -355 -361 0
354 355 -361 0
-354 355 361 0
356 -357 362 0
-356 -357 -362 0
356 357 -362 0
-356 357 362 0
358 -359 363 0
-358 -359 -363 0
358 359 -363 0
-358 359 363 0
360 -361 364 0
-360 -361 -364 0
360 361 -364 0
-360 361 364 0
-362 -363 364 0
362 -363 -364 0
-362 363 -364 0
362 363 364 0
1 -2 365 0
-1 -2 -365 0
1 2 -365 0
-1 2 365 0
-4 5 366 0
4 5 -366 0
-4 -5 -366 0
4 -5 366 0
-6 -8 367 0
6 -8 -367 0
-6 8 -367 0
6 8 367 0
11 -12 368 0
-11 -12 -368 0
11 12 -368 0
-11 12 368 0
-14 -15 369 0
14 -15 -369 0
-14 15 -369 0
14 15 369 0
16 -17 370 0
-16 -17 -370 0
16 17 -370 0
-16 17 370 0
18 19 371 0
-18 19 -371 0
18 -19 -371 0
-18 -19 371 0
22 -23 372 0
-22 -23 -372 0
22 23 -372 0
-22 23 372 0
-24 -26 373 0
24 -26 -373 0
-24 26 -373 0
24 26 373 0
30 32 374 0
-30 32 -374 0
30 -32 -374 0
-30 -32 374 0
34 38 375 0
-34 38 -375 0
34 -38 -375 0
-34 -38 375 0
-39 -40 376 0
39 -40 -376 0
-39 40 -376 0
39 40 376 0
43 -45 377 0
-43 -45 -377 0
43 45 -377 0
-43 45 377 0
46 47 378 0
-46 47 -378 0
46 -47 -378 0
-46 -47 378 0
365 -366 379 0
-365 -366 -379 0
365 366 -379 0
-365 366 379 0
367 -368 380 0
-367 -368 -380 0
367 368 -380 0
-367 368 380 0
369 -370 381 0
-369 -370 -381 0
369 370 -381 0
-369 370 381 0
371 -372 382 0
-371 -372 -382 0
371 372 -382 0
-371 372 382 0
373 -374 383 0
-373 -374 -383 0
373 374 -383 0
-373 374 383 0
375 -376 384 0
-375 -376 -384 0
375 376 -384 0
-375 376 384 0
377 -378 385 0
-377 -378 -385 0
377 378 -385 0
-377 378 385 0
379 -380 386 0
-379 -380 -386 0
379 380 -386 0
-379 380 386 0
381 -382 387 0
-381 -382 -387 0
381 382 -387 0
-381 382 387 0
383 -384 388 0
-383 -384 -388 0
383 384 -388 0
-383 384 388 0
385 -386 389 0
-385 -386 -389 0
385 386 -389 0
-385 386 389 0
387 -388 390 0
-387 -388 -390 0
387 388 -390 0
-387 388 390 0
389 390 0
-389 -390 0
-5 7 391 0
5 7 -391 0
-5 -7 -391 0
5 -7 391 0
8 9 392 0
-8 9 -392 0
8 -9 -392 0
-8 -9 392 0
-11 -12 393 0
11 -12 -393 0
-11 12 -393 0
11 12 393 0
13 15 394 0
-13 15 -394 0
13 -15 -394 0
-13 -15 394 0
-16 26 395 0
16 26 -395 0
-16 -26 -395 0
16 -26 395 0
29 34 396 0
-29 34 -396 0
29 -34 -396 0
-29 -34 396 0
-35 -36 397 0
35 -36 -397 0
-35 36 -397 0
35 36 397 0
-37 -38 398 0
37 -38 -398 0
-37 38 -398 0
37 38 398 0
-39 40 399 0
39 40 -399 0
-39 -40 -399 0
39 -40 399 0
41 42 400 0
-41 42 -400 0
41 -42 -400 0
-41 -42 400 0
43 44 401 0
-43 44 -401 0
43 -44 -401 0
-43 -44 401 0
46 47 402 0
-46 47 -402 0
46 -47 -402 0
-46 -47 402 0
-48 -49 403 0
48 -49 -403 0
-48 49 -403 0
48 49 403 0
391 -392 404 0
-391 -392 -404 0
391 392 -404 0
-391 392 404 0
393 -394 405 0
-393 -394 -405 0
393 394 -405 0
-393 394 405 0
395 -396 406 0
-395 -396 -406 0
395 396 -406 0
-395 396 406 0
397 -398 407 0
-397 -398 -407 0
397 398 -407 0
-397 398 407 0
399 -400 408 0
-399 -400 -408 0
399 400 -408 0
-399 400 408 0
401 -402 409 0
-401 -402 -409 0
401 402 -409 0
-401 402 409 0
403 -404 410 0
-403 -404 -410 0
403 404 -410 0
-403 404 410 0
405 -406 411 0
-405 -406 -411 0
405 406 -411 0
-405 406 411 0
407 -408 412 0
-407 -408 -412 0
407 408 -412 0
-407 408 412 0
409 -410 413 0
-409 -410 -413 0
409 410 -413 0
-409 410 413 0
411 -412 414 0
-411 -412 -414 0
411 412 -414 0
-411 412 414 0
413 414 0
-413 -414 0
-2 5 415 0
2 5 -415 0
-2 -5 -415 0
2 -5 415 0
-6 -10 416 0
6 -10 -416 0
-6 10 -416 0
6 10 416 0
11 13 417 0
-11 13 -417 0
11 -13 -417 0
-11 -13 417 0
16 19 418 0
-16 19 -418 0
16 -19 -418 0
-16 -19 418 0
-20 -22 419 0
20 -22 -419 0
-20 22 -419 0
20 22 419 0
-26 -27 420 0
26 -27 -420 0
-26 27 -420 0
26 27 420 0
28 -31 421 0
-28 -31 -421 0
28 31 -421 0
-28 31 421 0
32 -33 422 0
-32 -33 -422 0
32 33 -422 0
-32 33 422 0
35 -36 423 0
-35 -36 -423 0
35 36 -423 0
-35 36 423 0
38 39 424 0
-38 39 -424 0
38 -39 -424 0
-38 -39 424 0
-42 -45 425 0
42 -45 -425 0
-42 45 -425 0
42 45 425 0
-46 -47 426 0
46 -47 -426 0
-46 47 -426 0
46 47 426 0
415 -416 427 0
-415 -416 -427 0
415 416 -427 0
-415 416 427 0
417 -418 428 0
-417 -418 -428 0
417 418 -428 0
-417 418 428 0
419 -420 429 0
-419 -420 -429 0
419 420 -429 0
-419 420 429 0
421 -422 430 0
-421 -422 -430 0
421 422 -430 0
-421 422 430 0
423 -424 431 0
-423 -424 -431 0
423 424 -431 0
-423 424 431 0
425 -426 432 0
-425 -426 -432 0
425 426 -432 0
-425 426 432 0
427 -428 433 0
-427 -428 -433 0
427 428 -433 0
-427 428 433 0
429 -430 434 0
-429 -430 -434 0
429 430 -434 0
-429 430 434 0
431 -432 435 0
-431 -432 -435 0
431 432 -435 0
-431 432 435 0
-433 -434 435 0
433 -434 -435 0
-433 434 -435 0
433 434 435 0
-1 2 436 0
1 2 -436 0
-1 -2 -436 0
1 -2 436 0
-6 -8 437 0
6 -8 -437 0
-6 8 -437 0
6 8 437 0
9 10 438 0
-9 10 -438 0
9 -10 -438 0
-9 -10 438 0
13 -14 439 0
-13 -14 -439 0
13 14 -439 0
-13 14 439 0
19 -20 440 0
-19 -20 -440 0
19 20 -440 0
-19 20 440 0
-22 -27 441 0
22 -27 -441 0
-22 27 -441 0
22 27 441 0
31 -33 442 0
-31 -33 -442 0
31 33 -442 0
-31 33 442 0
-34 37 443 0
34 37 -443 0
-34 -37 -443 0
34 -37 443 0
-39 -40 444 0
39 -40 -444 0
-39 40 -444 0
39 40 444 0
41 42 445 0
-41 42 -445 0
41 -42 -445 0
-41 -42 445 0
46 49 446 0
-46 49 -446 0
46 -49 -446 0
-46 -49 446 0
435 -436 447 0
-435 -436 -447 0
435 436 -447 0
-435 436 447 0
437 -438 448 0
-437 -438 -448 0
437 438 -448 0
-437 438 448 0
439 -440 449 0
-439 -440 -449 0
439 440 -449 0
-439 440 449 0
441 -442 450 0
-441 -442 -450 0
441 442 -450 0
-441 442 450 0
443 -444 451 0
-443 -444 -451 0
443 444 -451 0
-443 444 451 0
445 -446 452 0
-445 -446 -452 0
445 446 -452 0
-445 446 452 0
447 -448 453 0
-447 -448 -453 0
447 448 -453 0
-447 448 453 0
449 -450 454 0
-449 -450 -454 0
449 450 -454 0
-449 450 454 0
451 -452 455 0
-451 -452 -455 0
451 452 -455 0
-451 452 455 0
-453 -454 455 0
453 -454 -455 0
-453 454 -455 0
453 454 455 0
1 -2 456 0
-1 -2 -456 0
1 2 -456 0
-1 2 456 0
-4 5 457 0
4 5 -457 0
-4 -5 -457 0
4 -5 457 0
-8 12 458 0
8 12 -458 0
-8 -12 -458 0
8 -12 458 0
-13 -15 459 0
13 -15 -459 0
-13 15 -459 0
13 15 459 0
16 19 460 0
-16 19 -460 0
16 -19 -460 0
-16 -19 460 0
21 -22 461 0
-21 -22 -461 0
21 22 -461 0
-21 22 461 0
-25 -28 462 0
25 -28 -462 0
-25 28 -462 0
25 28 462 0
31 -33 463 0
-31 -33 -463 0
31 33 -463 0
-31 33 463 0
-36 38 464 0
36 38 -464 0
-36 -38 -464 0
36 -38 464 0
39 -40 465 0
-39 -40 -465 0
39 40 -465 0
-39 40 465 0
-42 43 466 0
42 43 -466 0
-42 -43 -466 0
42 -43 466 0
-44 -45 467 0
44 -45 -467 0
-44 45 -467 0
44 45 467 0
-46 48 468 0
46 48 -468 0
-46 -48 -468 0
46 -48 468 0
456 -457 469 0
-456 -457 -469 0
456 457 -469 0
-456 457 469 0
458 -459 470 0
-458 -459 -470 0
458 459 -470 0
-458 459 470 0
460 -461 471 0
-460 -461 -471 0
460 461 -471 0
-460 461 471 0
462 -463 472 0
-462 -463 -472 0
462 463 -472 0
-462 463 472 0
464 -465 473 0
-464 -465 -473 0
464 465 -473 0
-464 465 473 0
466 -467 474 0
-466 -467 -474 0
466 467 -474 0
-466 467 474 0
468 -469 475 0
-468 -469 -475 0
468 469 -475 0
-468 469 475 0
470 -471 476 0
-470 -471 -476 0
470 471 -476 0
-470 471 476 0
472 -473 477 0
-472 -473 -477 0
472 473 -477 0
-472 473 477 0
474 -475 478 0
-474 -475 -478 0
474 475 -478 0
-474 475 478 0
476 -477 479 0
-476 -477 -479 0
476 477 -479 0
-476 477 479 0
478 479 0
-478 -479 0
-2 3 480 0
2 3 -480 0
-2 -3 -480 0
2 -3 480 0
8 11 481 0
-8 11 -481 0
8 -11 -481 0
-8 -11 481 0
-16 -17 482 0
16 -17 -482 0
-16 17 -482 0
16 17 482 0
18 20 483 0
-18 20 -483 0
18 -20 -483 0
-18 -20 483 0
-21 22 484 0
21 22 -484 0
-21 -22 -484 0
21 -22 484 0
28 -32 485 0
-28 -32 -485 0
28 32 -485 0
-28 32 485 0
-33 34 486 0
33 34 -486 0
-33 -34 -486 0
33 -34 486 0
-36 -38 487 0
36 -38 -487 0
-36 38 -487 0
36 38 487 0
39 40 488 0
-39 40 -488 0
39 -40 -488 0
-39 -40 488 0
-42 43 489 0
42 43 -489 0
-42 -43 -489 0
42 -43 489 0
44 -45 490 0
-44 -45 -490 0
44 45 -490 0
-44 45 490 0
46 47 491 0
-46 47 -491 0
46 -47 -491 0
-46 -47 491 0
480 -481 492 0
-480 -481 -492 0
480 481 -492 0
-480 481 492 0
482 -483 493 0
-482 -483 -493 0
482 483 -493 0
-482 483 493 0
484 -485 494 0
-484 -485 -494 0
484 485 -494 0
-484 485 494 0
486 -487 495 0
-486 -487 -495 0
486 487 -495 0
-486 487 495 0
488 -489 496 0
-488 -489 -496 0
488 489 -496 0
-488 489 496 0
490 -491 497 0
-490 -491 -497 0
490 491 -497 0
-490 491 497 0
492 -493 498 0
-492 -493 -498 0
492 493 -498 0
-492 493 498 0
494 -495 499 0
-494 -495 -499 0
494 495 -499 0
-494 495 499 0
496 -497 500 0
-496 -497 -500 0
496 497 -500 0
-496 497 500 0
-498 -499 500 0
498 -499 -500 0
-498 499 -500 0
498 499 500 0
